%chk=MOL.chk
%nprocshared=32
%mem=64GB
#P B3LYP/6-31G* em=GD3BJ

MOL

  0  1
C     91.37295833   97.43213924   57.49588702
H     91.34327428   96.33017270   57.40408263
C     92.26056987   98.02277062   56.37704142
H     91.72450897   98.87313119   55.95519739
H     93.18266490   98.40887552   56.81356502
C     92.61797206   97.05935750   55.24394504
H     91.74134135   96.85382601   54.62839009
H     93.35967311   97.55151020   54.61446025
C     93.17470351   95.70208150   55.69259688
H     93.70822837   95.24551058   54.85553083
H     92.36732766   95.01256771   55.97134724
N     94.09233341   95.84550505   56.80615054
H     93.80292672   96.51813274   57.53705829
C     94.90352983   94.88748162   57.21787715
N     95.12111283   93.78676757   56.47433524
H     95.68351217   93.06118180   56.89337506
H     94.31751141   93.41067623   55.98985692
N     95.69138059   95.14563270   58.26478455
H     96.26981768   94.41622843   58.64772477
H     95.48942018   95.95350227   58.83543290
O     93.20929199   97.31056096   58.99203855
C     89.22045486   95.03881135   60.53886817
H     89.79292624   94.58442703   59.72203017
C     90.17265753   95.32481361   61.72554479
H     91.15644642   95.55151512   61.31050821
H     89.81369494   96.19924456   62.27070772
C     90.26450288   94.13499641   62.64223205
C     89.90319621   94.22275129   63.98134354
H     89.59917371   95.17658697   64.38513294
C     89.93144315   93.10361637   64.79644379
H     89.65315905   93.19147622   65.83448646
C     90.31204497   91.87717882   64.27903688
H     90.32368068   90.99203316   64.89528167
C     90.67445355   92.90463690   62.13941743
H     90.95649753   92.81490277   61.09704988
C     90.68902571   91.78366260   62.94843716
H     90.99521187   90.84120362   62.51599740
O     88.15309956   92.88816991   60.57713745
C     83.74067921   93.77858031   60.44195978
H     83.33870791   94.07033320   61.41330567
C     82.60636911   93.48013514   59.44678266
H     82.11252876   94.41431890   59.16912104
H     83.07261120   93.07711107   58.54263527
C     81.57368521   92.47562215   59.97386198
H     82.07291822   91.74087890   60.60751873
H     81.16222233   91.93454866   59.12076738
C     80.38892321   93.12965957   60.70025438
H     79.59638612   92.38861212   60.82585681
H     79.99164657   93.92678408   60.06993953
N     80.71023630   93.70638444   61.99124622
H     80.94216561   94.68818722   62.00319604
C     80.63933362   93.06439773   63.16286038
N     80.40996864   91.76394366   63.24505676
H     80.27393574   91.38004565   64.18796701
H     80.26183325   91.19209441   62.43152299
N     80.86071606   93.73252458   64.29325220
H     80.72536526   93.23915575   65.16780182
H     80.94544166   94.73527903   64.30958036
C     84.62925027   92.53723109   60.55347048
O     85.11333603   92.03744150   59.52941550
N     84.90696216   92.05764479   61.76402464
C     84.26250151   92.33998839   63.04064960
H     83.21262808   92.58042395   62.89848668
H     84.77322811   93.17155775   63.53258572
C     85.79979053   90.90371394   61.85389814
H     86.78513891   91.15606267   61.45411642
C     85.80792424   90.54495583   63.34476155
H     85.95490283   89.47700920   63.48022252
H     86.61362832   91.08963416   63.83483543
C     84.44220007   91.03813448   63.82041664
H     84.40330133   91.20190834   64.89289635
H     83.67840745   90.32765012   63.50893265
C     85.17313381   89.80806674   60.99650644
O     83.98249613   89.56300433   61.05634977
N     86.04202015   89.09322491   60.23896040
H     86.96520325   89.47197538   60.06565529
C     85.51582105   88.22355348   59.21306748
H     84.49148946   87.97523277   59.52796856
C     85.42351776   88.93786824   57.82356990
H     85.85879691   88.27566724   57.05970594
O     86.21441644   90.11027796   57.79865554
H     85.77359081   90.77901691   58.36753415
C     83.96944286   89.25193902   57.47758339
H     83.54545161   89.88850294   58.25169310
H     83.40514374   88.32868433   57.39887597
H     83.93501395   89.76974965   56.52227119
C     86.25446272   86.88794705   59.12049012
O     86.06873375   86.12340420   58.18259921
N     86.95564795   86.56567420   60.22086716
H     87.25954334   87.32218799   60.82041355
C     87.73466608   85.35251192   60.32115791
H     88.67953917   85.43781867   59.76992080
H     87.16787230   84.54660475   59.84352202
O     87.57818562   85.70836518   62.67382902
C     91.02274441   86.96975905   62.92092183
H     91.06821226   86.16402492   63.66799691
C     92.48203834   87.40488956   62.63761328
H     92.90624682   86.71336758   61.90029676
H     92.48776061   88.39384295   62.16453394
C     93.32335813   87.40877457   63.91433178
H     92.87199897   88.10614006   64.61967492
H     93.29731321   86.40672012   64.34535676
C     94.77209945   87.80759382   63.64631829
H     95.22595007   87.06891490   62.98240905
H     94.78428619   88.76657002   63.12581732
C     95.55311342   87.90956650   64.95401330
H     95.09213167   88.66578185   65.59041794
H     95.53757280   86.95082135   65.47370548
N     96.96424999   88.29842032   64.68654121
H     96.98173050   89.11233732   64.03346237
H     97.45904725   87.52794574   64.21813701
H     97.45672646   88.53814724   65.55805114
O     90.66766661   88.63598092   64.58127456
C     82.86791517   85.90269215   68.41793518
H     83.18224365   85.90790428   69.47362206
C     83.98565756   86.51310749   67.54818762
H     83.57784162   86.65824748   66.54685067
H     84.79386991   85.78394862   67.47761362
C     84.51764042   87.82908404   68.11784241
H     83.68473931   88.45819701   68.43137186
H     85.11252387   87.61907960   69.00698167
C     85.36232433   88.61895136   67.11155407
H     84.78339523   88.84086793   66.21510958
H     85.65431514   89.56608087   67.56761155
N     86.58265257   87.92331955   66.74703102
H     87.31642230   87.94599616   67.44184693
C     86.79412442   87.17049642   65.67175209
N     85.87279115   87.00133203   64.72843956
H     86.10957898   86.47171492   63.90127687
H     84.94271887   87.37622606   64.81000766
N     87.96034675   86.53662456   65.53753431
H     88.14437421   86.05519235   64.66654140
H     88.74951732   86.76635135   66.12178809
C     81.64523283   86.80526467   68.28387615
O     81.43521026   87.75818881   69.02822007
N     80.88766600   86.50477494   67.22314612
H     81.17464493   85.69034942   66.69153439
C     79.77465803   87.30185468   66.77182105
H     79.50976037   87.97921741   67.59527831
C     80.16842334   88.13396079   65.53734859
H     79.27059558   88.62622620   65.16154926
H     80.52616480   87.45166259   64.76475094
C     81.26155723   89.16687724   65.84766593
H     82.04149433   88.70704872   66.45164218
H     81.68893193   89.51195389   64.90611043
C     80.69075689   90.36575465   66.57912927
O     80.26369991   91.34578416   65.96752741
N     80.69439834   90.30329256   67.90652965
H     80.99755596   89.47540088   68.41335309
H     80.28892838   91.06177530   68.43316013
O     77.57340574   86.99469874   65.91469802
C     89.38219953   90.28264346   58.62960794
H     88.65650974   90.90973230   58.09020123
O     89.20756675   90.40849307   60.00872314
H     89.06085876   91.35577699   60.22104807
C     89.08472936   88.81958768   58.23387656
H     88.00863760   88.70803855   58.06056138
O     89.45884478   87.90435880   59.23754023
H     90.17989343   87.36906422   58.86689949
C     89.81385323   88.52602244   56.93748198
H     89.62899204   89.33318569   56.21050248
O     89.36989168   87.31781267   56.38628301
P     89.43112952   87.29968713   54.72493647
O     90.97935402   87.56290562   54.37213383
H     91.61431691   86.92087859   54.85466981
O     88.67769963   88.49725719   54.23372731
O     88.98369563   85.93536813   54.32660070
C     91.31444312   88.45049536   57.24795591
H     91.86676731   88.63688312   56.31369101
O     91.62226577   87.18359324   57.75364193
P     93.02445644   86.53418145   57.02127333
O     94.02031013   87.69500678   57.02453022
O     92.60697545   86.10826973   55.61101430
O     93.37372798   85.39918030   57.94193754
C     91.74850095   89.51459506   58.25908860
H     91.66239235   89.08392974   59.27820748
O     93.07393230   89.90221317   58.03963105
H     93.53136063   89.10196930   57.64403053
C     90.79362690   90.69786721   58.14939466
H     90.75123365   90.96633953   57.08140664
P     92.23649487   92.88620276   58.11618093
O     92.27762645   92.64912846   56.64756121
O     91.80520737   94.21907938   58.62780883
O     91.23011367   91.80309035   58.87731179
O     93.72244614   92.58157719   58.72846404
C     93.87342539   92.64361883   60.13182623
H     93.00091297   93.12916744   60.57758775
H     94.76522535   93.24245806   60.34050797
C     94.03586783   91.22493858   60.68804671
H     93.30309429   90.59021592   60.18379791
O     93.75626727   91.08905000   62.07387732
C     94.20065801   91.97889007   62.98618641
O     94.82180600   92.97938567   62.72238750
C     93.84306451   91.51918957   64.37120989
H     92.96784341   90.87439544   64.30560636
H     94.68626793   90.92483310   64.73083404
C     95.42343991   90.66843391   60.33840311
H     95.53478304   89.66254068   60.75558292
H     95.48985604   90.61678113   59.25152074
O     96.46428444   91.50854191   60.80929079
C     97.00365439   91.23488343   62.00307992
O     96.72341839   90.24645986   62.64781258
C     97.98360299   92.28855092   62.42211195
H     98.68776406   92.43019690   61.60094220
H     97.41205570   93.21510368   62.52273193
C     93.61156153   92.69890076   65.31666680
H     92.79803906   93.30947396   64.92186923
H     94.51000439   93.31696575   65.33552355
C     93.26752820   92.22082393   66.72508988
H     92.37717227   91.58984270   66.67436916
H     94.08803862   91.61491946   67.11300885
C     93.01797571   93.37537108   67.65290303
H     92.99999963   94.34933708   67.18355820
C     92.81850133   93.28217528   68.95887257
H     92.66834384   94.18174386   69.54071328
C     92.82498000   92.00702670   69.75493212
H     92.65511586   91.15595772   69.09563388
H     92.03137157   92.04320056   70.50315464
C     94.15007016   91.85370659   70.44281824
H     94.99467823   91.68259799   69.78872258
C     94.33517986   91.94758841   71.74870869
H     93.49888724   92.13851259   72.40955836
C     95.66723147   91.83214987   72.42833558
H     95.58907592   91.13842051   73.26575731
H     96.40478853   91.44872709   71.71864225
C     96.11371324   93.18121252   72.91371444
H     96.03702636   93.96852786   72.17293759
C     96.56195099   93.47493901   74.12471034
H     96.82511989   94.50049305   74.35356118
C     96.73476879   92.51135743   75.26080639
H     97.01930215   91.52326709   74.88699250
H     97.55480233   92.85524387   75.89949655
C     95.50943121   92.36130348   76.12054242
H     95.64753334   91.73145320   76.99191174
C     94.33382644   92.92336688   75.89456751
H     94.19660332   93.54505577   75.02027430
C     93.14713035   92.77397862   76.79518008
H     93.20526847   91.81660374   77.31932866
H     92.23348240   92.77975163   76.19681846
C     93.04856262   93.88548127   77.85232195
H     93.92401320   93.83785747   78.50383852
H     92.16940674   93.67816188   78.46726184
C     92.93187660   95.29655176   77.26725858
H     92.36274611   95.92441986   77.95799881
H     92.37362774   95.25676080   76.32958127
C     94.28602449   95.96118937   77.02451557
H     94.80788927   96.06547523   77.97951369
H     94.89794666   95.32483718   76.38437022
C     94.13468366   97.33424796   76.38033766
H     93.53676884   97.98943626   77.01087266
H     93.64430366   97.24978151   75.41303626
H     95.10779039   97.79702783   76.23200347
C     98.70361950   91.95379406   63.73032605
H     99.53812793   92.64407371   63.85226278
H     99.11494156   90.94547368   63.65795804
C     97.77136365   92.05948373   64.93767474
H     96.85959144   91.50139574   64.72707863
H     97.48040971   93.10213956   65.07241782
C     98.41621510   91.53687320   66.22092660
H     98.86139752   90.55774837   66.03145949
H     99.22743634   92.20317446   66.51054032
C     97.39568976   91.42659626   67.35425317
H     97.00549139   92.41901283   67.58427512
H     96.55473029   90.82738259   66.99855150
C     97.95900057   90.79013161   68.63239692
H     97.17667218   90.19161509   69.10451814
H     98.78004917   90.11641290   68.37917621
C     98.44989442   91.79511341   69.67579000
H     97.64171072   92.49045017   69.90812570
H     98.69165390   91.24716795   70.59109694
C     99.68751130   92.58524021   69.25576462
H    100.42161688   91.89915652   68.82556924
H     99.42115422   93.31828442   68.49261167
C    100.34390555   93.31419913   70.42933258
H    101.27917673   93.76522281   70.08543730
H    100.59880016   92.59060394   71.20821766
C     99.46442430   94.40745848   71.03236697
H     98.54435117   93.96926387   71.42174960
H     99.19419138   95.12451851   70.25300584
C    100.17108518   95.14265051   72.16867333
H    100.39893058   94.43329129   72.96841488
H    101.11770734   95.54462545   71.80188084
C     99.31147017   96.27346914   72.72900465
H     99.18609643   97.04636330   71.96869926
H     98.31861007   95.87605605   72.95409610
C     99.87475939   96.89371392   74.00853628
H     99.91811691   96.12210705   74.78184894
H     99.18260414   97.66633165   74.35404204
C    101.26735424   97.51141524   73.86931286
H    101.98521077   96.74100157   73.58186351
H    101.57297065   97.88732690   74.84978652
C    101.32832134   98.66026812   72.86533376
H    100.56276375   99.39934398   73.11445787
H    101.11707561   98.28634494   71.86221204
C    102.69722999   99.33715322   72.85867054
H    103.46541584   98.59459023   72.62876172
H    102.91063022   99.73283198   73.85472865
C    102.76770996  100.46864583   71.83977136
H    103.74882029  100.93785842   71.85448517
H    102.02102017  101.22826097   72.06129171
H    102.58348564  100.09071761   70.83638364
C     78.50981836   86.48895160   66.49233694
C     78.50451123   85.07783431   66.98946566
H     78.89092155   85.02860811   68.00367460
H     77.49520238   84.67645906   66.95008938
H     79.14259265   84.47048956   66.34938618
N     82.53462888   84.58148143   67.89964490
H     83.36845642   84.00924147   67.83081283
H     81.89049502   84.10466879   68.52079593
C     88.01124861   85.02246136   61.77074960
C     88.73197545   83.73922621   62.00441551
H     87.98891224   82.94513118   62.08478080
H     89.38779303   83.50028347   61.17338912
H     89.29166325   83.77838684   62.93416352
N     90.30917528   86.40986632   61.78312071
H     90.13944970   87.11084069   61.06824203
H     90.88201357   85.69785050   61.33905319
C     90.26802234   88.12965163   63.55596703
C     89.00922772   88.57837116   62.88946951
H     88.35741257   87.72111696   62.74482559
H     88.53564343   89.35361274   63.48415104
H     89.23634797   88.97883149   61.89985166
C     92.04214342   97.64796742   58.84027875
C     91.23493211   98.28701799   59.90466688
H     90.38707036   97.63945256   60.13115795
H     91.83637745   98.46079820   60.79160430
H     90.83013067   99.21607428   59.50903030
N     90.04484994   98.02651399   57.44042610
H     89.63773259   97.83472435   56.53166861
H     89.44983896   97.58966000   58.13660059
N     88.63558978   96.28330356   60.05015150
H     88.10765255   96.09921355   59.20396660
H     87.99088208   96.66062000   60.73933036
C     88.17018754   94.03419940   60.99975438
C     87.15379225   94.53437361   61.97607616
H     86.24572503   94.78426854   61.41327587
H     86.91328438   93.73438341   62.66884363
H     87.50936765   95.40853929   62.50989551
N     84.63054236   94.86278182   60.02278799
H     85.17962096   94.55486999   59.22402167
H     84.08164854   95.66127622   59.71823623
 
