%chk=MOL.chk
%nprocshared=32
%mem=64GB
#P B3LYP/6-31G* em=GD3BJ

MOL

  0  1
C     94.27845817   38.57814961   54.44912867
H     93.80894130   39.48834422   54.84068273
C     93.90723027   37.38477288   55.35072401
H     94.61154387   36.57064121   55.16643444
H     94.01045004   37.68748893   56.39132342
C     92.49513467   36.82502700   55.14612864
H     92.34775614   36.06732328   55.91565173
H     92.41116400   36.33457341   54.17685007
C     91.36957461   37.84665404   55.28191460
H     91.56440426   38.50100676   56.13578443
H     90.43543028   37.30730500   55.46553646
N     91.24764089   38.63408164   54.06618747
H     92.09090466   38.60290365   53.45589350
C     90.16542516   39.30030679   53.71640094
N     89.10565210   39.40781698   54.52977644
H     88.95068962   38.66573845   55.19732544
H     88.24410158   39.71726694   54.06445016
N     90.17078037   40.06885414   52.61173332
H     90.88298350   39.91000267   51.91597100
H     89.25640853   40.34460677   52.27474078
O     96.45033109   38.74822330   53.46900292
C     86.17990591   37.99414759   60.55125715
H     86.51023761   38.59454485   61.40903714
C     84.79950536   37.40811035   60.86917238
H     84.93050892   36.52984494   61.51119159
H     84.35189096   37.05089788   59.93223015
C     83.84809844   38.35183672   61.53013643
C     84.03067612   39.63712247   61.95058068
H     84.89564214   40.26639540   61.88073573
N     82.88794953   40.11401224   62.53802156
H     82.77321504   41.03701973   62.92036251
C     81.93457388   39.14280157   62.50458643
C     82.50185215   38.00855175   61.87012683
C     81.72833185   36.86092307   61.69918055
H     82.13458664   35.98853917   61.20296994
C     80.43399097   36.86138005   62.17041695
H     79.82312966   35.97639453   62.04431261
C     80.62508057   39.13765183   62.97133406
H     80.19725950   40.00617670   63.44857803
C     79.88880942   37.98515713   62.79936885
H     78.86868993   37.94211464   63.15141765
C     87.21899533   36.87021353   60.43009695
O     87.20817489   35.88751843   61.16194247
N     88.16790926   37.11915870   59.52160060
H     87.98246985   37.91617991   58.92446445
C     89.33575657   36.30154411   59.28422616
H     89.51130109   35.73699636   60.21082418
C     89.14789804   35.29145588   58.13952775
H     90.13806143   35.02032330   57.76981327
H     88.59422704   35.76826083   57.32986986
C     88.42025738   34.03199527   58.60254536
H     87.50240754   34.29998714   59.12689750
H     89.05544853   33.48936224   59.30365813
C     88.06220314   33.11690552   57.43216936
H     87.28830287   33.59746427   56.82903759
H     88.94188349   32.96058690   56.80713522
C     87.52558808   31.78509242   57.94550030
H     86.85616762   31.97074146   58.78635987
H     88.34544142   31.14160549   58.26732061
N     86.75478506   31.09089468   56.88074554
H     85.87959942   31.64191551   56.65867139
H     86.46112595   30.15555995   57.18169055
H     87.31191363   31.01345547   56.02162074
O     91.57456343   36.67613016   58.54718748
C     81.63722236   40.43312726   54.76488252
H     81.27171564   39.38895833   54.81516975
C     81.60976457   40.92142360   53.30731929
H     81.58190438   42.01244312   53.32621020
H     82.53258614   40.57990867   52.83634239
C     80.42866779   40.39401445   52.49807864
H     80.43810007   39.29965202   52.52753925
H     79.48321147   40.73970353   52.91938421
C     80.51476503   40.84689593   51.03575469
H     80.51276083   41.93539844   50.97255870
H     79.64644484   40.46767791   50.49260337
N     81.69021881   40.31546903   50.37602807
H     81.74756667   39.29851365   50.35143582
C     82.86760617   40.90713325   50.21543345
N     83.04929652   42.21276382   50.40804840
H     83.97537735   42.59325610   50.30083409
H     82.36238772   42.75609217   50.90458923
N     83.83565468   40.19466770   49.61558287
H     84.78698062   40.49680624   49.75764968
H     83.71246996   39.18710321   49.70308161
C     83.09355506   40.40471001   55.23083825
O     83.64708386   39.37374111   55.61707055
N     83.67952846   41.60047940   55.20994447
H     83.11547596   42.39241044   54.94193646
C     85.10819924   41.78513407   55.39417526
H     85.60973182   41.24989248   54.57946846
C     85.42212057   43.28865582   55.37109183
H     85.05504411   43.68528778   54.42382369
H     84.85797304   43.74792701   56.18560095
C     86.90695400   43.63153076   55.52593783
H     87.27499559   43.15974982   56.43642553
H     86.95348313   44.71431388   55.65472605
C     87.74098672   43.20615536   54.30828664
H     87.56938047   43.90837638   53.49303587
H     87.40557587   42.23338356   53.94952393
C     89.23161350   43.10103111   54.60775811
H     89.40076593   42.41926506   55.44095350
H     89.74527857   42.71026185   53.72985794
N     89.80782652   44.43434688   54.95496781
H     90.81923780   44.35516680   55.13538327
H     89.34441689   44.80620270   55.79677048
H     89.65487867   45.09415165   54.17763640
O     84.84008978   41.23829547   57.71898579
C     85.47272726   36.05990238   56.30188500
H     85.92815649   35.47005532   57.11007907
O     85.16140200   37.28808345   56.90650657
H     84.65119694   37.86745700   56.31545414
C     86.50493031   36.26869628   55.18001475
H     86.90605555   35.29773213   54.87320153
O     87.56442442   37.03010029   55.68478152
H     87.15931180   37.68541798   56.28460125
C     85.88471769   36.92447404   53.92394529
H     86.52884958   36.67491336   53.06266387
O     85.86513210   38.30854307   54.06575985
P     85.81656536   39.27416661   52.69384038
O     86.27726319   38.32201411   51.48069026
H     85.65472147   37.62078046   51.17518229
O     86.98730687   40.18783545   52.92149682
O     84.51910946   39.96882434   52.47960268
C     84.48978647   36.38578367   53.55756384
H     84.63659498   35.42072299   53.03096331
O     83.87723581   37.30396487   52.70780465
P     83.51757542   36.60255965   51.21429669
O     82.77536972   37.67576997   50.45062508
O     82.68195809   35.37597104   51.56636418
O     84.89443804   36.27393202   50.63432779
C     83.53773682   36.09098490   54.71635740
H     83.19006103   37.04116411   55.15572454
O     82.40759407   35.39035874   54.24509878
H     82.44337651   35.37735359   53.25196520
C     84.29575463   35.26097770   55.74861689
H     84.69168111   34.38127771   55.21795593
P     83.68548059   33.27337533   57.29538851
O     82.40526988   32.79671814   57.87103384
O     84.44655061   32.46894771   56.28646543
O     83.44255737   34.80663309   56.76652413
O     84.81304617   33.49825702   58.47769710
C     84.39975782   34.12498744   59.66091646
H     83.69835645   34.93409334   59.43305381
H     85.29719212   34.53139081   60.14077938
C     83.72331169   33.15033437   60.62900712
H     82.74713788   32.84573307   60.23398543
O     83.55924275   33.86497589   61.85120735
C     82.63796594   33.42767009   62.71606149
O     81.91828826   32.47815083   62.49084681
C     82.58000423   34.25211215   63.97202797
H     82.37296133   33.56768562   64.79674607
H     81.71656680   34.91802330   63.87609291
C     84.56394237   31.88459702   60.84029689
H     84.55515639   31.31340489   59.91227534
H     84.12272438   31.29839938   61.65357222
O     85.91254136   32.19621520   61.13603340
C     86.23020195   32.43671170   62.42831557
O     85.46321680   32.24444649   63.34078417
C     87.62592632   32.97365901   62.53620731
H     87.56775073   34.00299718   62.16880789
H     88.26825599   32.41617500   61.85547459
C     83.83771154   35.07339235   64.23967455
H     83.97476145   35.78558621   63.42592838
H     84.69845334   34.40412309   64.25368735
C     83.73891619   35.82566900   65.56802179
H     83.64143775   35.11411920   66.38944435
H     84.66703378   36.38537957   65.70965903
C     82.58458529   36.77732475   65.57562990
H     82.52686734   37.44117300   64.72274036
C     81.67246140   36.84095922   66.53023550
H     81.72526377   36.16721050   67.37603844
C     80.50940765   37.78856566   66.54031497
H     80.59007746   38.44669672   67.40728142
H     80.53142745   38.39161180   65.63057404
C     79.23019075   37.00646200   66.59146130
H     78.98390410   36.50499272   65.66290197
C     78.43392488   36.84744746   67.63861464
H     77.55964809   36.21640265   67.53759334
C     78.63288641   37.42063410   69.01314910
H     79.24511187   38.32372302   68.96144112
H     77.66534585   37.68227543   69.44551149
C     79.32190780   36.41625904   69.89069152
H     80.28551974   36.08015338   69.52969465
C     78.82564724   35.92546476   71.01344962
H     77.86338975   36.26173977   71.37870209
C     79.53062465   34.93384033   71.89218054
H     78.86335269   34.09603452   72.10859224
H     80.41427442   34.55309619   71.37343510
C     79.94870892   35.58872859   73.17627146
H     80.66299004   36.39480139   73.06552120
C     79.49940334   35.25956683   74.37545037
H     78.77832684   34.45796918   74.48105174
C     79.90497054   35.92796942   75.65047033
H     80.33143824   35.18259715   76.32826693
H     80.67084656   36.67883054   75.44680435
C     78.70716463   36.59109656   76.33828763
H     77.93930632   35.83795063   76.53099862
H     78.27757631   37.33622319   75.66440455
C     79.10329518   37.25949770   77.65221634
H     79.87395795   38.00911250   77.45715340
H     79.53285791   36.51104818   78.32268861
C     77.91488382   37.92769512   78.34009032
H     77.48433977   38.67482241   77.66923605
H     77.14437872   37.17850165   78.53704329
C     78.31908996   38.59495550   79.64950413
H     79.07247950   39.35899033   79.47062832
H     78.73266152   37.86186261   80.33868207
H     77.45921158   39.06389608   80.12199094
C     88.15341452   32.94229743   63.96894861
H     88.98373797   33.64180656   64.06310569
H     87.35553664   33.27073321   64.63748837
C     88.61434385   31.54584452   64.38324392
H     89.51090953   31.28103689   63.82091215
H     87.83409071   30.82293886   64.13349133
C     88.89876120   31.47073667   65.88270427
H     87.95062640   31.56706717   66.41622608
H     89.52785579   32.31381088   66.17590066
C     89.58726363   30.16643032   66.29301298
H     89.14489159   29.33474343   65.73978637
H     89.40805210   29.98349109   67.35513013
C     91.09573772   30.20363765   66.05248618
H     91.53129104   30.98308953   66.68201408
H     91.29022819   30.46486370   65.01241490
C     91.76162611   28.86728971   66.37815875
H     91.37087617   28.50316189   67.33209336
H     91.49567983   28.13263494   65.61459431
C     93.28385394   28.96390941   66.48851206
H     93.53760982   29.68162306   67.27267014
H     93.67512958   27.99083035   66.79680809
C     93.96884790   29.38214906   65.18933429
H     93.61952696   30.37270565   64.89503466
H     93.69965635   28.68190120   64.39522297
C     95.48778239   29.42038971   65.34306221
H     95.85310694   28.42264104   65.59862652
H     95.74517635   30.08512395   66.17154243
C     96.18713409   29.90753605   64.07617885
H     95.80187079   30.89476115   63.81097890
H     95.95670824   29.23000198   63.25072376
C     97.70091627   29.99181646   64.25694123
H     98.09179318   29.00124708   64.50240437
H     97.92436125   30.65022067   65.10013383
C     98.40486888   30.51883684   63.00869198
H     98.00201783   31.50285236   62.75772631
H     98.19717261   29.85281176   62.16769726
C     99.91480101   30.63007996   63.20797137
H    100.10990924   31.27873542   64.06358888
H    100.32218738   29.64281845   63.44015559
C    100.61410912   31.18537518   61.96891999
H    100.24130106   32.19188593   61.76547367
H    100.35596619   30.55834604   61.11159182
C    102.13716785   31.23087181   62.10037067
H    102.50532581   30.23718549   62.36664278
H    102.56274935   31.48949007   61.12757597
C    102.62185286   32.24338113   63.13232068
H    103.70843651   32.29327606   63.13030592
H    102.23236775   33.23326806   62.90496675
H    102.29891163   31.96660324   64.13237270
N     80.89326449   41.36503678   55.60828266
H     79.91385054   41.34544952   55.34273864
H     80.94520857   41.06817551   56.57741641
N     93.78235750   38.39370348   53.08616228
H     94.22970999   39.07311400   52.47586493
H     94.05719021   37.47797753   52.74129988
N     86.21904739   38.83669156   59.36291586
H     85.76518581   38.33780223   58.59817904
H     85.64529016   39.66297730   59.51086653
C     85.51636739   41.14072075   56.71816478
C     86.80875019   40.39063762   56.65222367
H     87.09356884   40.03660057   57.63815444
H     86.60408517   39.55815779   55.98064572
H     87.58424149   40.98649483   56.18579500
C     90.58507565   37.15693114   59.04808981
C     90.50512138   38.58831614   59.47406368
H     89.91925316   39.14419684   58.74409405
H     90.00713954   38.67209788   60.43569767
H     91.50527186   39.01002128   59.52316045
C     95.79094394   38.79585942   54.48836548
C     96.38651386   39.06802332   55.83562392
H     97.35258301   39.55332707   55.72229912
H     95.72478210   39.67177846   56.44712133
H     96.54587811   38.11612105   56.33984671
 
