%chk=MOL.chk
%nprocshared=32
%mem=64GB
#p b3lyp/6-31g(d) em=gd3bj

MOL

3 1
 C                 69.94085411  103.38383022   55.41410266
 H                 69.08059698  103.11576280   54.77753198
 C                 71.03525583  102.31177629   55.24946396
 H                 71.82912078  102.50024693   55.97213212
 H                 71.45000243  102.44957784   54.25087055
 C                 70.52346943  100.87822204   55.38235714
 H                 71.22140224  100.18551979   54.91408121
 H                 69.56781424  100.79605882   54.86453790
 C                 70.34158664  100.43106475   56.83328832
 H                 69.79256286  101.18460886   57.39570192
 H                 71.31497746  100.29684486   57.30810575
 C                 69.56898215   99.11989780   56.88526138
 H                 68.62189167   99.22977709   56.35796928
 H                 70.15861695   98.33241105   56.41364153
 N                 69.27111460   98.74029525   58.28044498
 H                 70.09910789   98.34258338   58.78523815
 H                 68.49384341   98.01210549   58.36519431
 H                 68.96480989   99.54781993   58.82702592
 C                 69.42338232  103.46084726   56.84634644
 O                 68.30850329  103.05672606   57.17207693
 N                 70.29357456  104.01696343   57.69109658
 H                 71.16811465  104.35070470   57.31033747
 C                 70.04273304  104.20964420   59.09620391
 H                 69.04743883  103.79869843   59.29916081
 C                 71.05924939  103.39981989   59.95201135
 H                 70.92652430  102.33748431   59.73740486
 H                 70.80759130  103.56873845   61.00003102
 C                 72.47780561  103.80240885   59.68465024
 C                 73.03357891  104.90694408   60.32510028
 H                 72.43790080  105.46363699   61.03363813
 C                 74.33362644  105.29650151   60.07239021
 H                 74.76758326  106.14863061   60.57116873
 C                 75.11198768  104.57952692   59.16724277
 O                 76.39226704  104.99115288   58.95133494
 H                 76.82916515  104.40101426   58.32238354
 C                 73.26382191  103.09201230   58.78624724
 H                 72.87017272  102.20468077   58.31580857
 C                 74.56751522  103.47250144   58.52676279
 H                 75.16762348  102.89397697   57.83980872
 O                 69.43138047  106.00831806   60.55378128
 C                 67.69462667  103.60319125   63.26270060
 H                 67.30248372  102.66882274   63.68822106
 C                 67.71539151  103.44544827   61.73410178
 H                 68.00463306  104.39590684   61.28077070
 H                 68.48802514  102.70643632   61.51655103
 C                 66.39811984  102.93475825   61.15012027
 H                 65.66338825  103.73710880   61.09868867
 H                 66.02858703  102.14320205   61.80179873
 C                 66.59753167  102.32999189   59.76079554
 H                 67.60530364  101.90666794   59.70624130
 H                 66.48728672  103.09010211   58.98320884
 N                 65.63023524  101.26771708   59.52835434
 H                 65.18015114  100.88261125   60.34997972
 C                 65.61941083  100.51443552   58.43341282
 N                 66.36370374  100.82958061   57.37472749
 H                 66.19850540  100.33906373   56.51017901
 H                 66.93698538  101.66904455   57.34534555
 N                 64.76469618   99.48676037   58.36073943
 H                 64.89537642   98.79884109   57.63632387
 H                 64.37178341   99.11874192   59.22311646
 O                 69.75994320  102.72351534   64.14265218
 C                 68.42702183  102.54702246   67.67393883
 H                 68.25533568  102.82811157   68.72333547
 C                 67.25553573  103.04812833   66.81355067
 H                 67.38402739  104.12967934   66.70929020
 H                 67.34532440  102.58545537   65.83071141
 C                 65.86582528  102.76786024   67.38169643
 H                 65.87531073  102.90360755   68.46403526
 H                 65.59953173  101.73238441   67.17365481
 C                 64.81371129  103.71623904   66.79463192
 H                 63.83651399  103.48946715   67.22174422
 H                 65.07450516  104.74500415   67.05281818
 N                 64.72896340  103.65016952   65.35099077
 H                 65.47806988  104.10710645   64.80348174
 C                 63.87715574  102.91632729   64.65629096
 N                 62.91440303  102.18763040   65.22909686
 H                 63.03843480  101.76178875   66.13989430
 H                 62.31313060  101.66847636   64.60928862
 N                 63.85280194  103.07794792   63.32425989
 H                 63.51153249  102.31424418   62.75767354
 H                 64.60846162  103.61393642   62.92195325
 C                 68.55490473  101.01965116   67.66560640
 O                 67.60023894  100.25558837   67.56560260
 N                 69.82115455  100.62196641   67.82455646
 H                 70.50278200  101.36793833   67.91983452
 C                 70.29197868   99.25608426   67.88334487
 H                 69.53749590   98.61905261   67.41371772
 C                 71.61649329   99.14023331   67.12272769
 H                 72.10526058   98.20848900   67.41077564
 H                 72.26156388   99.96619617   67.42064125
 C                 71.35811341   99.14468815   65.61753472
 H                 70.71972204   99.99379236   65.36226785
 H                 70.79024464   98.23974988   65.37952726
 C                 72.63019036   99.17669782   64.76248031
 H                 73.43382622   98.67827981   65.30423366
 H                 72.43648465   98.60738937   63.85196910
 C                 73.03881022  100.59397065   64.36770313
 H                 73.50918160  101.10821717   65.20626204
 H                 72.15342688  101.15297686   64.05891264
 N                 73.99173876  100.54228713   63.22547666
 H                 73.53520845  100.07269972   62.40444007
 H                 74.82072809   99.98842554   63.47882002
 H                 74.28337714  101.48687497   62.94508516
 C                 70.48461582   98.85100562   69.35621229
 O                 71.46118363   99.24629065   69.99008456
 N                 69.55504208   98.05921014   69.89497674
 C                 68.30811822   97.61171235   69.29599005
 H                 68.47886085   96.74749692   68.64163983
 H                 67.83896573   98.39844560   68.70493504
 C                 69.69372761   97.59108322   71.27342422
 H                 69.64910594   98.45018112   71.95494836
 C                 68.48394098   96.66558460   71.47704918
 H                 68.75533938   95.64260001   71.21283368
 H                 68.14316398   96.68016739   72.50863657
 C                 67.45575053   97.21683539   70.49548887
 H                 66.96832251   98.09701545   70.91336210
 H                 66.69633497   96.49193892   70.21342814
 O                 71.57873751   96.97121669   72.62495151
 C                 73.15171271   90.87090799   63.94839879
 H                 73.04965613   91.67852999   64.68474209
 C                 73.62509125   91.48141917   62.60113045
 H                 72.86488537   91.30270878   61.83805076
 H                 74.53073942   90.95309569   62.30288285
 C                 73.94205216   92.97803232   62.64960774
 H                 74.21203015   93.29632527   61.64232092
 H                 74.79378530   93.15130530   63.30621488
 C                 72.77038058   93.83900769   63.14954408
 H                 72.69935185   93.78361748   64.23804736
 H                 72.92175505   94.88522084   62.87729618
 N                 71.50428831   93.36885647   62.63463399
 H                 71.15729912   92.48229724   63.07221392
 C                 70.88794017   93.78374882   61.54998661
 N                 71.33088579   94.79388866   60.78577200
 H                 71.85648042   95.53201583   61.24501549
 H                 70.60132584   95.17675188   60.18157932
 N                 69.83652281   93.07965142   61.08875500
 H                 69.17983738   93.62199497   60.53122900
 H                 69.44940088   92.38057874   61.70383448
 O                 70.75225629   90.99719678   63.61321823
 C                 77.42413445   96.22473368   57.07404093
 H                 78.45325833   96.62664038   57.19874050
 C                 77.29118183   95.71450084   55.63840519
 H                 77.86309651   94.78786200   55.56111377
 H                 76.24635707   95.50670721   55.41269912
 O                 77.07751327   97.55252434   54.12480201
 C                 76.50494077   97.38807405   57.46602626
 O                 76.33298556   97.65369795   58.65772740
 N                 75.91974837   98.07736408   56.48808347
 H                 76.20626685   97.92165068   55.50872812
 C                 75.13220240   99.24593405   56.82021928
 H                 75.77402854   99.96765345   57.34865159
 C                 74.52607882   99.90727192   55.58136702
 H                 73.93465897   99.15964191   55.06264021
 H                 73.85655273  100.69605876   55.92907360
 C                 75.58244239  100.50015883   54.64952218
 H                 76.08606583  101.32165282   55.16031256
 H                 76.33748646   99.74767885   54.41932281
 C                 74.96793053  101.01138734   53.34462631
 H                 74.15640677  101.70004019   53.58029323
 H                 75.74755033  101.55165199   52.80669241
 C                 74.46514970   99.85184010   52.48773538
 H                 73.56431010   99.41872062   52.92129006
 H                 75.23775886   99.08183408   52.44515287
 N                 74.15024894  100.31633648   51.10654180
 H                 73.43276560  101.05622482   51.13862900
 H                 74.99895856  100.69735916   50.66266909
 H                 73.80154686   99.53266393   50.53595275
 C                 74.02581661   98.90926474   57.81617596
 O                 73.75410904   99.75895263   58.68557645
 N                 73.30191479   97.80564277   57.72515396
 H                 72.59426372   97.73317677   58.46133450
 C                 73.32093456   96.64714041   56.84038205
 H                 74.31481599   96.18874291   56.83608212
 C                 72.29133123   95.66775383   57.43894416
 H                 71.35985669   96.22073898   57.57097456
 H                 72.63184050   95.36533675   58.43014582
 C                 72.00754441   94.43514359   56.58569613
 H                 72.87383724   93.77447413   56.57882099
 H                 71.79223397   94.75155661   55.56573038
 C                 70.80170995   93.67206910   57.15282483
 H                 70.63747265   92.74722023   56.59304665
 H                 70.99301396   93.40858292   58.19254105
 N                 69.59566322   94.48212788   57.14045322
 H                 69.29270821   94.87990112   58.03186787
 C                 68.93836424   94.85415409   56.04980798
 N                 69.24707785   94.35904851   54.84869813
 H                 69.91703525   93.61453563   54.75629894
 H                 68.70229521   94.61708707   54.04243591
 N                 67.98104125   95.77449799   56.14372526
 H                 67.69712059   96.13061892   57.05802149
 H                 67.37551100   95.95301049   55.35972706
 O                 71.96667723   97.79506657   55.20316986
 C                 67.48191849   99.39613864   63.79458356
 H                 68.06752536   99.18619310   64.70149743
 O                 66.58904744  100.41170498   64.14666622
 H                 65.89118684  100.47455365   63.44595333
 C                 68.45856496   99.84251515   62.68794669
 H                 68.97779529  100.74765716   63.03385440
 O                 67.81651232  100.20124796   61.49535178
 H                 67.47565337   99.38236959   61.10101690
 C                 69.48350388   98.72848100   62.44964965
 H                 70.00960982   98.49827480   63.38340125
 O                 70.39216543   99.19181411   61.49841382
 P                 71.61104552   98.17203644   61.07285915
 O                 72.79282964   99.25551030   61.01675269
 H                 73.12258841   99.46267352   60.08231939
 O                 71.90037017   97.19874789   62.16510039
 O                 71.31719970   97.65934246   59.69491703
 C                 68.78968418   97.42961817   62.01576469
 H                 69.55201636   96.63980145   61.90854296
 O                 68.16875209   97.62945268   60.78917290
 P                 67.62955564   96.30210923   59.89583497
 O                 66.45251084   95.66528199   60.60462781
 O                 68.82425263   95.37085127   59.73983350
 O                 67.29161315   97.00388433   58.58589604
 C                 67.85415426   97.00352889   63.15742988
 H                 68.46323988   96.95357527   64.07712278
 O                 67.32099480   95.72744781   62.99406506
 H                 66.90649626   95.68134233   62.06733578
 C                 66.78476533   98.08522871   63.39635210
 H                 66.15894262   97.74657321   64.23455474
 P                 64.49157990   98.82517764   62.21811271
 O                 64.53857810  100.30474045   62.49157989
 O                 63.88201366   98.40658035   60.93675584
 O                 66.00053067   98.21296390   62.23544748
 O                 63.75104349   98.06057057   63.46228982
 C                 63.67592473   98.71461269   64.71628218
 H                 64.59134214   99.28192880   64.91546715
 H                 62.83835183   99.41739516   64.69415635
 C                 63.46728722   97.70730451   65.86443692
 H                 62.40143350   97.67029651   66.13342674
 O                 64.19955040   98.07598418   67.02425185
 C                 63.91157145   99.26568206   67.62183769
 O                 63.11694605  100.07091247   67.14640625
 C                 64.69648011   99.44086833   68.88681615
 H                 65.69328265   99.78828148   68.59259632
 H                 64.83164754   98.46277693   69.34761189
 C                 63.92707111   96.28860217   65.50088486
 H                 64.97326797   96.29687350   65.17665547
 H                 63.30198923   95.88686161   64.70301152
 O                 63.79356771   95.44807813   66.62832690
 C                 64.88905726   95.29196956   67.42617025
 O                 66.00564905   95.67784690   67.12304721
 C                 64.51925138   94.57401614   68.69645779
 H                 64.36724647   95.33651663   69.46488727
 H                 63.57470382   94.05539783   68.53571483
 C                 64.04693461  100.44610319   69.83790374
 H                 63.77164418  101.32827052   69.25898993
 H                 63.12903096  100.02478456   70.24811953
 C                 64.98854763  100.86531108   70.96392267
 H                 64.55700392  101.72852000   71.48038200
 H                 65.93449810  101.19372768   70.52300524
 C                 65.29657082   99.82426874   71.99849958
 H                 66.13628487  100.08403266   72.63454424
 C                 64.66680001   98.68230099   72.22032182
 H                 63.81514975   98.38427322   71.62534159
 C                 65.04754449   97.71739648   73.30520121
 H                 65.96566741   98.06300267   73.78942109
 H                 65.23487459   96.73168641   72.87248728
 C                 63.95919987   97.61605759   74.33247417
 H                 63.67419528   98.55604838   74.78852455
 C                 63.35231079   96.49549057   74.68483514
 H                 63.64147849   95.55522932   74.23227426
 C                 62.28173174   96.40487855   75.73037973
 H                 61.39385657   95.94016337   75.29908781
 H                 62.01895033   97.41344106   76.06401735
 C                 62.77065886   95.61170243   76.90823687
 H                 63.74737943   95.91303289   77.26624998
 C                 62.13760455   94.62642018   77.52537795
 H                 62.62535661   94.13294376   78.35617330
 C                 60.79183062   94.05352431   77.17493136
 H                 60.17947372   94.79407632   76.65876386
 H                 60.28076331   93.75899360   78.09334948
 C                 60.98581763   92.85055551   76.29639911
 H                 61.24881541   93.06498554   75.26791613
 C                 60.91363360   91.59786625   76.71433533
 H                 60.66783449   91.39366371   77.74805324
 C                 61.15734511   90.40260745   75.85012041
 H                 62.03585907   89.86828123   76.22042159
 H                 61.37797086   90.73621972   74.83363587
 C                 59.96201988   89.44152330   75.80591591
 H                 60.15102738   88.69174166   75.03340127
 H                 59.07569210   90.00703114   75.50758988
 C                 59.66848847   88.72205547   77.12348631
 H                 58.73829514   88.16020176   77.00350531
 H                 59.50460348   89.45251382   77.91734399
 C                 60.76983759   87.75207983   77.54759118
 H                 61.69044682   88.30152984   77.75186023
 H                 60.97164916   87.05694948   76.72886595
 C                 60.37713876   86.96639130   78.79346396
 H                 60.18644538   87.64156575   79.62492857
 H                 61.17285154   86.28331077   79.08169699
 H                 59.47526548   86.38583715   78.61115177
 C                 65.62271900   93.61028070   69.13729692
 H                 65.73711909   92.84160908   68.36942149
 H                 66.56479482   94.16094158   69.18214278
 C                 65.33882117   92.94374003   70.48339503
 H                 66.11423935   92.19375431   70.65176632
 H                 64.38114404   92.42572688   70.42270862
 C                 65.34061588   93.92383339   71.65943394
 H                 64.39410123   94.46666587   71.69341967
 H                 66.14031147   94.65066980   71.50054948
 C                 65.58541162   93.24120767   73.00786369
 H                 65.77904385   94.01038025   73.75605716
 H                 66.48887404   92.63223794   72.92747821
 C                 64.42194055   92.35832739   73.45947056
 H                 63.58496445   92.98412648   73.77567061
 H                 64.08810462   91.77227284   72.60141495
 C                 64.78032235   91.38168171   74.58412212
 H                 64.09301202   90.53409009   74.52591512
 H                 65.78728541   90.99399027   74.41148870
 C                 64.69069489   91.93721385   76.00630328
 H                 64.81729652   91.09520202   76.69296723
 H                 63.69214231   92.34574924   76.17460408
 C                 65.73387435   92.99680281   76.35789841
 H                 66.70343975   92.71227625   75.94200415
 H                 65.45081960   93.95696447   75.92440811
 C                 65.86425236   93.15874167   77.87093698
 H                 66.20521817   92.21457173   78.30346394
 H                 64.87828075   93.37760881   78.28253757
 C                 66.84503047   94.26498070   78.25376063
 H                 67.78297868   94.10019124   77.71642882
 H                 66.44988339   95.23080345   77.92979152
 C                 67.14572154   94.31405708   79.75317797
 H                 67.46113377   93.32149777   80.08462534
 H                 67.98081430   94.99832263   79.91470892
 C                 65.95440573   94.76976246   80.59412769
 H                 65.09352592   94.13964515   80.36390174
 H                 65.69483862   95.79630180   80.32397399
 C                 66.21486582   94.68791977   82.09909131
 H                 65.28264053   94.91112871   82.62474207
 H                 66.50139776   93.66502641   82.34972452
 C                 67.29128256   95.65821660   82.58303914
 H                 68.26384220   95.35744713   82.18936076
 H                 67.06725838   96.65342885   82.19024201
 C                 67.37977242   95.74293074   84.10766816
 H                 66.39888290   96.00429322   84.51190909
 H                 68.07031169   96.54793085   84.37120794
 C                 67.86417570   94.44930988   84.75315800
 H                 68.82186840   94.15074535   84.33204094
 H                 67.15175804   93.64433815   84.59404787
 H                 67.98821408   94.58571928   85.82511938
 C                 71.76941195   90.25128574   63.77362959
 C                 71.64241734   88.75597416   63.73688101
 H                 71.94807624   88.31122878   64.68520725
 H                 70.60585437   88.48959681   63.54530045
 H                 72.26998491   88.33972699   62.94727041
 N                 74.18196283   89.97871060   64.45535383
 H                 73.93148487   89.63523165   65.37502057
 H                 74.28410925   89.17738058   63.84277841
 C                 71.00716769   96.87264055   71.53040421
 C                 71.53093532   96.01231017   70.41185994
 H                 70.72127589   95.61574120   69.80494321
 H                 72.17502673   96.61817495   69.77341948
 H                 72.12817313   95.20241129   70.82299255
 C                 69.13901185  103.72952540   63.72632239
 C                 69.79851900  105.07026680   63.58585692
 H                 69.31658600  105.82551937   64.20563440
 H                 70.84281396  104.99692412   63.87863871
 H                 69.73333964  105.41772775   62.54870985
 N                 66.81980023  104.70885176   63.68968728
 H                 67.25303755  105.19294772   64.47097642
 H                 66.75392189  105.39024350   62.93834763
 N                 70.52114546  104.68449463   55.08576731
 H                 70.82514962  104.69408720   54.11880468
 H                 69.83053135  105.41864339   55.19595833
 N                 77.14066690   95.13017969   57.99765617
 H                 77.94376546   94.51838026   58.07819115
 H                 76.95039173   95.52379183   58.91504556
 C                 72.90932963   97.02159888   55.41661613
 C                 73.69403425   96.38262729   54.30490253
 H                 74.65984019   96.87732559   54.18390465
 H                 73.89744684   95.33822118   54.52801674
 H                 73.13871183   96.45960825   53.37403193
 C                 70.02609174  105.67306871   59.51231484
 C                 70.73925203  106.65804833   58.63184767
 H                 70.70058821  107.64333328   59.08928575
 H                 71.77846039  106.36514460   58.49229957
 H                 70.25968898  106.70143758   57.65497355
 N                 69.70793038  103.11955673   67.27183200
 H                 69.85589611  102.93501947   66.28097661
 H                 69.68584292  104.12566261   67.39456300
 O                 78.71328644   96.53885076   54.16107675
 H                 78.54150555   96.12513593   53.31199998
 C                 77.88102208   96.71501189   54.60593999

